NAME : bck2217
COMMENT : Bonn VLSI data set with 2217 points
COMMENT : Uni Bonn, Research Institute for Discrete Math
COMMENT : Contributed by Andre Rohe
TYPE : TSP
DIMENSION : 2217
EDGE_WEIGHT_TYPE : EUC_2D
NODE_COORD_SECTION
1 0 101
2 0 104
3 0 116
4 0 127
5 0 14
6 0 150
7 0 31
8 0 48
9 0 59
10 0 65
11 0 82
12 0 84
13 0 99
14 2 10
15 2 105
16 2 106
17 2 116
18 2 117
19 2 119
20 2 131
21 2 132
22 2 133
23 2 134
24 2 16
25 2 18
26 2 21
27 2 29
28 2 33
29 2 35
30 2 36
31 2 38
32 2 42
33 2 44
34 2 48
35 2 52
36 2 54
37 2 55
38 2 57
39 2 58
40 2 60
41 2 61
42 2 63
43 2 64
44 2 66
45 2 68
46 2 69
47 2 70
48 2 74
49 2 76
50 3 120
51 5 11
52 5 14
53 5 159
54 5 163
55 5 17
56 5 24
57 5 28
58 5 32
59 5 35
60 5 37
61 5 41
62 5 43
63 5 45
64 5 51
65 5 57
66 5 60
67 5 63
68 5 65
69 5 68
70 5 75
71 5 79
72 5 8
73 5 83
74 8 47
75 8 52
76 9 15
77 9 150
78 9 21
79 9 29
80 9 33
81 9 38
82 9 47
83 9 52
84 9 55
85 9 58
86 9 61
87 9 66
88 9 76
89 10 10
90 10 15
91 10 21
92 10 29
93 10 33
94 10 36
95 10 38
96 10 42
97 10 44
98 10 47
99 10 53
100 10 55
101 10 58
102 10 61
103 10 64
104 10 66
105 10 74
106 10 76
107 11 10
108 11 12
109 11 15
110 11 150
111 11 157
112 11 21
113 11 29
114 11 33
115 11 36
116 11 38
117 11 42
118 11 44
119 11 47
120 11 52
121 11 55
122 11 58
123 11 61
124 11 64
125 11 66
126 11 74
127 11 76
128 11 84
129 12 21
130 12 25
131 12 29
132 12 38
133 12 47
134 12 5
135 12 76
136 12 80
137 15 11
138 15 24
139 15 28
140 15 32
141 15 37
142 15 41
143 15 43
144 15 45
145 15 54
146 15 65
147 15 75
148 15 79
149 15 8
150 15 83
151 17 105
152 17 131
153 17 133
154 17 70
155 18 104
156 18 115
157 18 121
158 18 134
159 18 22
160 18 23
161 18 30
162 18 31
163 18 39
164 18 40
165 18 49
166 18 50
167 18 77
168 18 78
169 25 12
170 25 126
171 25 127
172 25 133
173 25 134
174 25 14
175 25 140
176 25 141
177 25 15
178 25 16
179 25 160
180 25 162
181 25 18
182 25 20
183 25 21
184 25 26
185 25 30
186 25 32
187 25 40
188 25 44
189 25 45
190 25 46
191 25 48
192 25 52
193 25 54
194 25 56
195 25 58
196 25 6
197 25 62
198 25 64
199 25 66
200 25 67
201 25 71
202 25 73
203 25 74
204 25 76
205 25 77
206 25 79
207 25 81
208 25 82
209 25 86
210 25 87
211 25 90
212 25 91
213 25 92
214 25 97
215 25 99
216 26 84
217 28 10
218 28 102
219 28 146
220 28 150
221 28 154
222 28 20
223 28 24
224 28 29
225 28 32
226 28 34
227 28 36
228 28 43
229 28 51
230 28 53
231 28 56
232 28 61
233 28 63
234 28 66
235 28 70
236 28 73
237 28 76
238 31 25
239 31 57
240 31 77
241 32 14
242 32 147
243 32 150
244 32 154
245 32 18
246 32 21
247 32 25
248 32 30
249 32 40
250 32 48
251 32 54
252 32 57
253 32 64
254 32 67
255 32 71
256 32 74
257 32 77
258 33 148
259 33 152
260 33 18
261 33 21
262 33 25
263 33 30
264 33 40
265 33 48
266 33 52
267 33 54
268 33 57
269 33 62
270 33 64
271 33 67
272 33 71
273 33 74
274 33 78
275 34 101
276 34 105
277 34 13
278 34 144
279 34 156
280 34 18
281 34 21
282 34 25
283 34 30
284 34 33
285 34 40
286 34 48
287 34 52
288 34 54
289 34 57
290 34 62
291 34 64
292 34 67
293 34 71
294 34 74
295 34 77
296 34 8
297 35 21
298 35 25
299 35 40
300 35 48
301 35 57
302 35 67
303 38 102
304 38 149
305 38 153
306 38 16
307 38 24
308 38 34
309 38 36
310 38 43
311 38 51
312 38 53
313 38 63
314 38 70
315 38 79
316 40 126
317 40 134
318 40 140
319 40 45
320 40 46
321 40 6
322 40 81
323 40 87
324 40 90
325 40 97
326 40 99
327 41 125
328 41 133
329 41 141
330 41 22
331 41 23
332 41 27
333 41 28
334 41 41
335 41 42
336 41 49
337 41 50
338 41 59
339 41 60
340 41 68
341 41 69
342 41 85
343 41 91
344 48 101
345 48 104
346 48 105
347 48 109
348 48 110
349 48 113
350 48 114
351 48 115
352 48 12
353 48 120
354 48 122
355 48 14
356 48 158
357 48 16
358 48 160
359 48 17
360 48 21
361 48 22
362 48 25
363 48 29
364 48 30
365 48 32
366 48 34
367 48 35
368 48 37
369 48 39
370 48 41
371 48 45
372 48 47
373 48 48
374 48 49
375 48 50
376 48 52
377 48 56
378 48 58
379 48 60
380 48 61
381 48 62
382 48 65
383 48 71
384 48 73
385 48 75
386 48 76
387 48 78
388 48 79
389 48 80
390 48 83
391 48 84
392 48 88
393 48 89
394 48 9
395 48 92
396 48 93
397 48 94
398 48 99
399 49 107
400 49 86
401 51 127
402 51 13
403 51 133
404 51 137
405 51 142
406 51 148
407 51 152
408 51 16
409 51 20
410 51 28
411 51 34
412 51 37
413 51 41
414 51 44
415 51 47
416 51 55
417 51 57
418 51 6
419 51 60
420 51 68
421 51 72
422 51 75
423 51 78
424 54 134
425 54 24
426 54 64
427 55 14
428 55 145
429 55 148
430 55 152
431 55 17
432 55 24
433 55 32
434 55 35
435 55 39
436 55 45
437 55 52
438 55 58
439 55 64
440 55 73
441 55 76
442 56 12
443 56 14
444 56 146
445 56 150
446 56 17
447 56 24
448 56 32
449 56 35
450 56 39
451 56 45
452 56 52
453 56 56
454 56 58
455 56 64
456 56 71
457 56 73
458 56 76
459 57 12
460 57 14
461 57 154
462 57 17
463 57 24
464 57 32
465 57 35
466 57 39
467 57 42
468 57 45
469 57 5
470 57 52
471 57 56
472 57 58
473 57 64
474 57 71
475 57 73
476 57 76
477 58 124
478 58 17
479 58 24
480 58 52
481 58 64
482 61 127
483 61 13
484 61 133
485 61 137
486 61 142
487 61 147
488 61 151
489 61 20
490 61 55
491 61 57
492 61 6
493 61 72
494 63 101
495 63 104
496 63 110
497 63 113
498 63 120
499 63 122
500 63 22
501 63 30
502 63 49
503 63 50
504 63 62
505 63 80
506 63 83
507 63 89
508 63 9
509 63 92
510 63 99
511 64 108
512 64 114
513 64 18
514 64 19
515 64 26
516 64 27
517 64 53
518 64 54
519 64 66
520 64 67
521 64 87
522 64 93
523 71 107
524 71 108
525 71 118
526 71 119
527 71 121
528 71 133
529 71 134
530 71 135
531 71 136
532 71 14
533 71 16
534 71 17
535 71 21
536 71 22
537 71 23
538 71 25
539 71 27
540 71 28
541 71 30
542 71 51
543 71 53
544 71 62
545 71 65
546 71 67
547 71 82
548 71 84
549 72 122
550 74 11
551 74 162
552 74 20
553 74 27
554 74 30
555 74 35
556 74 43
557 74 49
558 74 51
559 74 53
560 74 56
561 74 59
562 74 65
563 74 67
564 74 7
565 74 72
566 74 78
567 74 83
568 77 14
569 77 31
570 77 37
571 78 14
572 78 152
573 78 17
574 78 25
575 78 28
576 78 31
577 78 37
578 78 81
579 79 15
580 79 17
581 79 25
582 79 28
583 79 31
584 79 37
585 79 40
586 79 50
587 79 64
588 79 69
589 79 81
590 80 14
591 80 152
592 80 17
593 80 25
594 80 28
595 80 31
596 80 38
597 80 5
598 80 50
599 80 55
600 80 58
601 80 64
602 80 69
603 80 81
604 80 86
605 81 159
606 81 17
607 81 31
608 81 40
609 81 69
610 81 8
611 84 11
612 84 16
613 84 162
614 84 20
615 84 43
616 84 49
617 84 51
618 84 53
619 84 56
620 84 59
621 84 65
622 84 67
623 84 72
624 84 78
625 85 133
626 86 107
627 86 135
628 86 22
629 86 23
630 86 62
631 87 106
632 87 117
633 87 123
634 87 136
635 87 18
636 87 19
637 87 32
638 87 33
639 87 35
640 87 36
641 87 37
642 87 41
643 87 44
644 87 47
645 87 70
646 87 71
647 87 73
648 87 76
649 87 77
650 94 101
651 94 124
652 94 125
653 94 126
654 94 127
655 94 13
656 94 131
657 94 137
658 94 15
659 94 159
660 94 16
661 94 161
662 94 18
663 94 19
664 94 21
665 94 23
666 94 24
667 94 28
668 94 29
669 94 30
670 94 32
671 94 36
672 94 38
673 94 40
674 94 48
675 94 50
676 94 53
677 94 55
678 94 62
679 94 64
680 94 83
681 94 84
682 94 88
683 94 89
684 94 92
685 94 93
686 94 94
687 94 99
688 95 132
689 95 86
690 97 11
691 97 145
692 97 149
693 97 15
694 97 153
695 97 20
696 97 23
697 97 27
698 97 35
699 97 38
700 97 44
701 97 48
702 97 50
703 97 53
704 97 55
705 97 58
706 97 60
707 97 62
708 97 64
709 97 69
710 97 7
711 97 72
712 97 76
713 97 80
714 100 16
715 101 13
716 101 146
717 101 149
718 101 153
719 101 16
720 101 21
721 101 24
722 101 32
723 101 36
724 101 73
725 101 76
726 101 80
727 102 13
728 102 147
729 102 151
730 102 17
731 102 19
732 102 21
733 102 24
734 102 32
735 102 36
736 102 47
737 102 52
738 102 61
739 102 74
740 102 78
741 103 103
742 103 13
743 103 155
744 103 16
745 103 19
746 103 21
747 103 24
748 103 32
749 103 36
750 103 42
751 103 47
752 103 5
753 103 52
754 103 57
755 103 59
756 103 61
757 103 68
758 103 71
759 104 142
760 104 24
761 104 32
762 107 145
763 107 148
764 107 152
765 107 18
766 107 20
767 107 27
768 107 35
769 107 48
770 107 50
771 107 53
772 107 55
773 107 58
774 107 60
775 107 62
776 107 64
777 107 69
778 107 72
779 107 75
780 107 79
781 109 101
782 109 124
783 109 126
784 109 133
785 109 137
786 109 29
787 109 30
788 109 40
789 109 83
790 109 89
791 109 92
792 109 99
793 110 123
794 110 125
795 110 134
796 110 138
797 110 25
798 110 26
799 110 33
800 110 34
801 110 87
802 110 93
803 117 100
804 117 102
805 117 103
806 117 111
807 117 113
808 117 116
809 117 117
810 117 121
811 117 122
812 117 125
813 117 126
814 117 127
815 117 132
816 117 14
817 117 16
818 117 160
819 117 162
820 117 18
821 117 20
822 117 21
823 117 23
824 117 24
825 117 26
826 117 28
827 117 30
828 117 32
829 117 39
830 117 43
831 117 50
832 117 54
833 117 59
834 117 69
835 117 71
836 117 74
837 117 76
838 117 90
839 117 91
840 117 94
841 118 119
842 120 107
843 120 11
844 120 111
845 120 113
846 120 142
847 120 146
848 120 15
849 120 150
850 120 154
851 120 17
852 120 23
853 120 25
854 120 27
855 120 30
856 120 36
857 120 40
858 120 44
859 120 47
860 120 50
861 120 55
862 120 60
863 120 66
864 120 69
865 120 7
866 120 71
867 120 74
868 120 76
869 120 79
870 120 82
871 123 18
872 123 37
873 123 52
874 124 147
875 124 150
876 124 154
877 124 18
878 124 21
879 124 28
880 124 37
881 124 40
882 124 44
883 124 52
884 124 83
885 125 110
886 125 134
887 125 14
888 125 148
889 125 152
890 125 16
891 125 19
892 125 21
893 125 24
894 125 26
895 125 28
896 125 38
897 125 42
898 125 49
899 125 68
900 125 73
901 126 105
902 126 110
903 126 14
904 126 140
905 126 156
906 126 16
907 126 18
908 126 21
909 126 24
910 126 26
911 126 28
912 126 34
913 126 46
914 126 49
915 126 5
916 126 65
917 126 68
918 126 73
919 126 78
920 126 81
921 126 83
922 127 143
923 130 111
924 130 113
925 130 146
926 130 149
927 130 15
928 130 153
929 130 17
930 130 20
931 130 25
932 130 27
933 130 39
934 130 43
935 130 47
936 130 50
937 130 55
938 130 60
939 130 66
940 130 69
941 130 71
942 130 74
943 130 76
944 130 79
945 130 82
946 132 101
947 132 116
948 132 122
949 132 125
950 132 132
951 132 32
952 132 91
953 132 97
954 133 102
955 133 120
956 133 126
957 133 89
958 133 98
959 140 10
960 140 100
961 140 103
962 140 104
963 140 105
964 140 110
965 140 112
966 140 115
967 140 117
968 140 12
969 140 145
970 140 15
971 140 16
972 140 161
973 140 17
974 140 20
975 140 21
976 140 24
977 140 25
978 140 36
979 140 46
980 140 48
981 140 53
982 140 58
983 140 59
984 140 6
985 140 63
986 140 64
987 140 67
988 140 68
989 140 69
990 140 74
991 140 76
992 140 89
993 140 91
994 140 94
995 140 95
996 140 99
997 141 61
998 141 97
999 143 116
1000 143 12
1001 143 122
1002 143 128
1003 143 131
1004 143 135
1005 143 137
1006 143 140
1007 143 142
1008 143 30
1009 143 34
1010 143 44
1011 143 46
1012 143 48
1013 143 51
1014 143 54
1015 143 81
1016 143 87
1017 143 89
1018 143 91
1019 144 0
1020 144 168
1021 147 10
1022 147 114
1023 147 52
1024 148 10
1025 148 114
1026 148 119
1027 148 35
1028 148 45
1029 148 78
1030 148 88
1031 149 10
1032 149 114
1033 149 129
1034 149 136
1035 149 139
1036 149 151
1037 149 33
1038 149 35
1039 149 42
1040 149 45
1041 149 50
1042 149 52
1043 149 78
1044 149 88
1045 150 119
1046 150 132
1047 150 27
1048 150 78
1049 153 122
1050 153 128
1051 153 135
1052 153 137
1053 153 140
1054 153 142
1055 153 30
1056 153 34
1057 153 46
1058 153 48
1059 153 51
1060 153 81
1061 153 87
1062 153 89
1063 153 91
1064 154 36
1065 155 100
1066 155 103
1067 155 110
1068 155 112
1069 155 145
1070 155 16
1071 155 17
1072 155 20
1073 155 24
1074 155 58
1075 155 6
1076 155 64
1077 155 67
1078 155 74
1079 155 76
1080 155 94
1081 156 104
1082 156 120
1083 156 123
1084 156 126
1085 156 161
1086 156 62
1087 156 68
1088 156 79
1089 156 80
1090 156 82
1091 156 85
1092 156 86
1093 156 98
1094 163 10
1095 163 101
1096 163 103
1097 163 104
1098 163 105
1099 163 120
1100 163 121
1101 163 138
1102 163 139
1103 163 141
1104 163 142
1105 163 160
1106 163 162
1107 163 22
1108 163 23
1109 163 27
1110 163 28
1111 163 31
1112 163 32
1113 163 33
1114 163 38
1115 163 40
1116 163 52
1117 163 58
1118 163 6
1119 163 65
1120 163 66
1121 163 69
1122 163 74
1123 163 82
1124 163 87
1125 163 88
1126 163 92
1127 163 99
1128 164 122
1129 164 25
1130 166 101
1131 166 108
1132 166 11
1133 166 128
1134 166 13
1135 166 136
1136 166 146
1137 166 150
1138 166 154
1139 166 16
1140 166 18
1141 166 45
1142 166 51
1143 166 53
1144 166 55
1145 166 59
1146 166 64
1147 166 82
1148 166 99
1149 169 124
1150 169 130
1151 169 84
1152 170 147
1153 170 150
1154 170 154
1155 170 57
1156 171 0
1157 171 10
1158 171 148
1159 171 152
1160 171 168
1161 171 52
1162 171 73
1163 171 81
1164 171 91
1165 171 98
1166 172 10
1167 172 107
1168 172 109
1169 172 12
1170 172 144
1171 172 15
1172 172 156
1173 172 52
1174 172 54
1175 172 57
1176 172 62
1177 172 73
1178 172 81
1179 172 91
1180 172 98
1181 173 124
1182 173 42
1183 173 84
1184 176 101
1185 176 108
1186 176 11
1187 176 13
1188 176 149
1189 176 153
1190 176 16
1191 176 18
1192 176 45
1193 176 51
1194 176 53
1195 176 55
1196 176 82
1197 176 99
1198 177 74
1199 177 92
1200 178 104
1201 178 105
1202 178 138
1203 178 142
1204 178 22
1205 178 28
1206 178 31
1207 178 38
1208 178 40
1209 178 6
1210 178 66
1211 178 69
1212 179 119
1213 179 122
1214 179 128
1215 179 135
1216 179 26
1217 179 32
1218 186 10
1219 186 101
1220 186 103
1221 186 104
1222 186 107
1223 186 109
1224 186 122
1225 186 123
1226 186 127
1227 186 128
1228 186 131
1229 186 132
1230 186 133
1231 186 138
1232 186 147
1233 186 15
1234 186 151
1235 186 16
1236 186 20
1237 186 21
1238 186 24
1239 186 25
1240 186 26
1241 186 31
1242 186 33
1243 186 49
1244 186 51
1245 186 54
1246 186 56
1247 186 58
1248 186 61
1249 186 64
1250 186 65
1251 186 69
1252 186 70
1253 186 73
1254 186 74
1255 186 75
1256 186 80
1257 186 82
1258 186 91
1259 186 92
1260 186 95
1261 187 125
1262 187 18
1263 187 67
1264 189 107
1265 189 109
1266 189 114
1267 189 120
1268 189 152
1269 189 155
1270 189 157
1271 189 160
1272 189 162
1273 189 39
1274 189 47
1275 189 49
1276 189 51
1277 189 54
1278 189 56
1279 189 59
1280 189 61
1281 193 84
1282 194 106
1283 194 140
1284 194 151
1285 194 48
1286 194 53
1287 194 58
1288 194 60
1289 195 106
1290 195 111
1291 195 151
1292 195 153
1293 195 156
1294 195 159
1295 195 48
1296 195 53
1297 195 58
1298 195 60
1299 195 84
1300 196 111
1301 196 35
1302 198 0
1303 198 168
1304 199 107
1305 199 109
1306 199 114
1307 199 120
1308 199 152
1309 199 157
1310 199 160
1311 199 162
1312 199 49
1313 199 51
1314 199 54
1315 199 56
1316 199 59
1317 199 61
1318 201 102
1319 201 122
1320 201 128
1321 201 131
1322 201 138
1323 201 147
1324 201 15
1325 201 21
1326 201 24
1327 201 31
1328 201 33
1329 201 64
1330 201 70
1331 201 73
1332 201 80
1333 201 82
1334 201 92
1335 201 98
1336 202 10
1337 202 103
1338 202 113
1339 202 119
1340 202 126
1341 202 132
1342 202 19
1343 202 25
1344 202 68
1345 202 74
1346 202 90
1347 202 99
1348 209 100
1349 209 101
1350 209 11
1351 209 110
1352 209 111
1353 209 113
1354 209 114
1355 209 121
1356 209 122
1357 209 126
1358 209 127
1359 209 130
1360 209 131
1361 209 132
1362 209 137
1363 209 139
1364 209 142
1365 209 147
1366 209 152
1367 209 153
1368 209 159
1369 209 161
1370 209 18
1371 209 22
1372 209 23
1373 209 27
1374 209 28
1375 209 31
1376 209 32
1377 209 33
1378 209 38
1379 209 40
1380 209 43
1381 209 44
1382 209 48
1383 209 49
1384 209 52
1385 209 53
1386 209 54
1387 209 59
1388 209 61
1389 209 64
1390 209 68
1391 209 74
1392 209 76
1393 209 80
1394 209 82
1395 209 85
1396 209 87
1397 210 102
1398 210 124
1399 210 25
1400 210 46
1401 212 106
1402 212 119
1403 212 146
1404 212 148
1405 212 150
1406 212 6
1407 212 64
1408 212 69
1409 212 8
1410 212 80
1411 212 82
1412 212 85
1413 212 87
1414 215 0
1415 215 168
1416 217 147
1417 217 63
1418 217 68
1419 217 79
1420 217 84
1421 218 104
1422 218 144
1423 218 147
1424 218 149
1425 218 155
1426 218 5
1427 218 63
1428 218 68
1429 218 70
1430 218 79
1431 218 84
1432 218 89
1433 219 116
1434 222 119
1435 222 148
1436 222 150
1437 222 6
1438 222 64
1439 222 69
1440 222 8
1441 222 80
1442 222 82
1443 222 85
1444 222 87
1445 224 11
1446 224 110
1447 224 114
1448 224 121
1449 224 127
1450 224 130
1451 224 137
1452 224 139
1453 224 142
1454 224 153
1455 224 22
1456 224 28
1457 224 31
1458 224 38
1459 224 40
1460 224 43
1461 224 49
1462 224 52
1463 224 59
1464 224 61
1465 225 102
1466 225 125
1467 225 131
1468 225 18
1469 225 26
1470 225 32
1471 225 47
1472 225 53
1473 225 99
1474 232 100
1475 232 101
1476 232 103
1477 232 105
1478 232 107
1479 232 108
1480 232 110
1481 232 112
1482 232 114
1483 232 115
1484 232 117
1485 232 12
1486 232 120
1487 232 122
1488 232 123
1489 232 124
1490 232 127
1491 232 128
1492 232 129
1493 232 13
1494 232 133
1495 232 135
1496 232 137
1497 232 139
1498 232 14
1499 232 141
1500 232 143
1501 232 146
1502 232 147
1503 232 149
1504 232 15
1505 232 153
1506 232 155
1507 232 16
1508 232 18
1509 232 19
1510 232 20
1511 232 22
1512 232 24
1513 232 25
1514 232 27
1515 232 28
1516 232 30
1517 232 31
1518 232 33
1519 232 34
1520 232 35
1521 232 36
1522 232 38
1523 232 43
1524 232 44
1525 232 48
1526 232 49
1527 232 52
1528 232 53
1529 232 54
1530 232 59
1531 232 61
1532 232 69
1533 232 70
1534 232 74
1535 232 75
1536 232 78
1537 232 79
1538 232 80
1539 232 85
1540 232 87
1541 232 89
1542 232 91
1543 232 92
1544 232 94
1545 232 96
1546 232 97
1547 232 99
1548 233 46
1549 233 72
1550 235 104
1551 235 107
1552 235 109
1553 235 11
1554 235 111
1555 235 114
1556 235 117
1557 235 121
1558 235 134
1559 235 138
1560 235 142
1561 235 146
1562 235 149
1563 235 159
1564 235 163
1565 235 24
1566 235 27
1567 235 32
1568 235 39
1569 235 66
1570 235 7
1571 235 93
1572 235 96
1573 235 98
1574 238 28
1575 238 89
1576 239 105
1577 239 112
1578 239 115
1579 239 132
1580 239 147
1581 239 22
1582 239 25
1583 239 28
1584 239 89
1585 239 94
1586 240 103
1587 240 105
1588 240 108
1589 240 110
1590 240 112
1591 240 115
1592 240 120
1593 240 132
1594 240 147
1595 240 22
1596 240 25
1597 240 29
1598 240 31
1599 240 38
1600 240 90
1601 240 92
1602 240 94
1603 240 97
1604 241 103
1605 241 105
1606 241 108
1607 241 110
1608 241 112
1609 241 115
1610 241 120
1611 241 132
1612 241 147
1613 241 157
1614 241 168
1615 241 22
1616 241 25
1617 241 28
1618 241 31
1619 241 38
1620 241 5
1621 241 89
1622 241 92
1623 241 94
1624 241 97
1625 242 160
1626 242 63
1627 242 8
1628 245 104
1629 245 109
1630 245 11
1631 245 111
1632 245 121
1633 245 163
1634 245 30
1635 245 32
1636 245 39
1637 245 66
1638 245 91
1639 245 93
1640 245 98
1641 247 100
1642 247 101
1643 247 123
1644 247 124
1645 247 128
1646 247 129
1647 247 13
1648 247 14
1649 247 15
1650 247 153
1651 247 155
1652 247 16
1653 247 19
1654 247 20
1655 247 34
1656 247 35
1657 247 36
1658 247 43
1659 247 49
1660 247 52
1661 247 59
1662 247 61
1663 247 69
1664 247 75
1665 247 78
1666 247 85
1667 247 87
1668 248 47
1669 248 53
1670 248 73
1671 248 79
1672 255 101
1673 255 103
1674 255 104
1675 255 105
1676 255 107
1677 255 109
1678 255 111
1679 255 112
1680 255 113
1681 255 115
1682 255 120
1683 255 122
1684 255 123
1685 255 125
1686 255 126
1687 255 128
1688 255 13
1689 255 130
1690 255 133
1691 255 135
1692 255 139
1693 255 140
1694 255 141
1695 255 143
1696 255 144
1697 255 146
1698 255 159
1699 255 161
1700 255 18
1701 255 20
1702 255 21
1703 255 25
1704 255 27
1705 255 31
1706 255 32
1707 255 33
1708 255 35
1709 255 37
1710 255 38
1711 255 43
1712 255 44
1713 255 48
1714 255 49
1715 255 52
1716 255 53
1717 255 54
1718 255 59
1719 255 6
1720 255 61
1721 255 67
1722 255 69
1723 255 80
1724 255 91
1725 255 92
1726 255 93
1727 255 94
1728 255 95
1729 255 97
1730 256 46
1731 258 102
1732 258 108
1733 258 110
1734 258 116
1735 258 119
1736 258 122
1737 258 127
1738 258 130
1739 258 134
1740 258 136
1741 258 147
1742 258 150
1743 258 154
1744 258 20
1745 258 24
1746 258 26
1747 258 30
1748 258 41
1749 258 72
1750 258 75
1751 258 77
1752 261 123
1753 261 35
1754 262 120
1755 262 123
1756 262 128
1757 262 18
1758 262 21
1759 262 27
1760 262 35
1761 262 38
1762 263 101
1763 263 107
1764 263 109
1765 263 115
1766 263 120
1767 263 124
1768 263 126
1769 263 128
1770 263 133
1771 263 135
1772 263 146
1773 263 18
1774 263 21
1775 263 25
1776 263 27
1777 263 36
1778 263 38
1779 263 79
1780 264 101
1781 264 107
1782 264 109
1783 264 115
1784 264 117
1785 264 120
1786 264 123
1787 264 126
1788 264 128
1789 264 133
1790 264 135
1791 264 146
1792 264 148
1793 264 155
1794 264 18
1795 264 21
1796 264 25
1797 264 27
1798 264 35
1799 264 38
1800 264 63
1801 264 71
1802 264 74
1803 264 79
1804 264 97
1805 265 151
1806 265 21
1807 265 27
1808 265 38
1809 268 102
1810 268 108
1811 268 110
1812 268 116
1813 268 125
1814 268 127
1815 268 134
1816 268 136
1817 268 147
1818 268 154
1819 268 24
1820 268 26
1821 268 30
1822 268 37
1823 268 41
1824 268 72
1825 268 75
1826 268 77
1827 270 104
1828 270 105
1829 270 112
1830 270 113
1831 270 140
1832 270 141
1833 270 144
1834 270 32
1835 270 33
1836 270 43
1837 270 49
1838 270 52
1839 270 59
1840 270 6
1841 270 61
1842 271 13
1843 271 22
1844 271 23
1845 271 28
1846 271 29
1847 271 39
1848 271 40
1849 271 47
1850 271 53
1851 271 91
1852 271 92
1853 271 94
1854 271 95
1855 278 100
1856 278 102
1857 278 104
1858 278 105
1859 278 107
1860 278 108
1861 278 11
1862 278 110
1863 278 112
1864 278 113
1865 278 115
1866 278 116
1867 278 117
1868 278 119
1869 278 121
1870 278 123
1871 278 124
1872 278 126
1873 278 135
1874 278 137
1875 278 141
1876 278 143
1877 278 144
1878 278 145
1879 278 147
1880 278 149
1881 278 150
1882 278 151
1883 278 23
1884 278 25
1885 278 26
1886 278 27
1887 278 28
1888 278 29
1889 278 31
1890 278 32
1891 278 33
1892 278 36
1893 278 37
1894 278 39
1895 278 42
1896 278 43
1897 278 47
1898 278 48
1899 278 51
1900 278 52
1901 278 53
1902 278 58
1903 278 6
1904 278 60
1905 278 63
1906 278 64
1907 278 68
1908 278 69
1909 278 72
1910 278 73
1911 278 74
1912 278 79
1913 278 81
1914 278 86
1915 278 96
1916 278 97
1917 278 98
1918 279 45
1919 279 66
1920 281 101
1921 281 104
1922 281 109
1923 281 11
1924 281 112
1925 281 114
1926 281 118
1927 281 120
1928 281 123
1929 281 126
1930 281 13
1931 281 130
1932 281 142
1933 281 148
1934 281 15
1935 281 155
1936 281 158
1937 281 162
1938 281 18
1939 281 20
1940 281 34
1941 281 40
1942 284 105
1943 284 115
1944 284 23
1945 284 31
1946 285 102
1947 285 105
1948 285 110
1949 285 115
1950 285 121
1951 285 124
1952 285 23
1953 285 31
1954 286 10
1955 286 100
1956 286 102
1957 286 106
1958 286 108
1959 286 110
1960 286 113
1961 286 115
1962 286 119
1963 286 121
1964 286 124
1965 286 141
1966 286 147
1967 286 24
1968 286 31
1969 286 39
1970 286 85
1971 287 10
1972 287 100
1973 287 102
1974 287 105
1975 287 108
1976 287 110
1977 287 113
1978 287 115
1979 287 119
1980 287 121
1981 287 124
1982 287 131
1983 287 14
1984 287 141
1985 287 147
1986 287 153
1987 287 156
1988 287 17
1989 287 23
1990 287 31
1991 287 39
1992 287 85
1993 288 127
1994 291 101
1995 291 107
1996 291 109
1997 291 11
1998 291 114
1999 291 118
2000 291 120
2001 291 13
2002 291 130
2003 291 142
2004 291 148
2005 291 15
2006 291 18
2007 291 20
2008 291 25
2009 291 34
2010 291 40
2011 293 144
2012 293 145
2013 293 150
2014 293 151
2015 293 27
2016 293 28
2017 293 29
2018 293 36
2019 293 42
2020 293 48
2021 293 51
2022 293 58
2023 293 6
2024 293 60
2025 293 63
2026 293 69
2027 293 72
2028 293 79
2029 293 81
2030 293 97
2031 293 98
2032 294 46
2033 294 52
2034 294 67
2035 294 73
2036 301 105
2037 301 107
2038 301 108
2039 301 109
2040 301 11
2041 301 111
2042 301 115
2043 301 117
2044 301 129
2045 301 131
2046 301 133
2047 301 134
2048 301 135
2049 301 137
2050 301 139
2051 301 141
2052 301 143
2053 301 144
2054 301 146
2055 301 148
2056 301 152
2057 301 154
2058 301 160
2059 301 18
2060 301 21
2061 301 22
2062 301 24
2063 301 28
2064 301 29
2065 301 31
2066 301 60
2067 301 62
2068 301 65
2069 301 66
2070 301 70
2071 301 71
2072 301 74
2073 301 75
2074 301 76
2075 301 81
2076 301 83
2077 301 86
2078 301 88
2079 301 91
2080 301 94
2081 301 96
2082 302 68
2083 304 101
2084 304 103
2085 304 106
2086 304 112
2087 304 117
2088 304 120
2089 304 124
2090 304 138
2091 304 140
2092 304 143
2093 304 145
2094 304 147
2095 304 151
2096 304 154
2097 304 25
2098 304 32
2099 304 35
2100 304 39
2101 304 44
2102 304 50
2103 304 54
2104 304 6
2105 304 8
2106 304 87
2107 304 96
2108 304 98
2109 307 36
2110 308 115
2111 308 141
2112 308 148
2113 308 152
2114 308 47
2115 308 50
2116 308 54
2117 308 85
2118 308 94
2119 309 105
2120 309 111
2121 309 115
2122 309 137
2123 309 139
2124 309 141
2125 309 144
2126 309 146
2127 309 148
2128 309 152
2129 309 24
2130 309 31
2131 309 48
2132 309 52
2133 309 85
2134 309 94
2135 310 100
2136 310 105
2137 310 111
2138 310 115
2139 310 118
2140 310 125
2141 310 137
2142 310 139
2143 310 141
2144 310 144
2145 310 146
2146 310 148
2147 310 152
2148 310 24
2149 310 31
2150 310 33
2151 310 5
2152 310 56
2153 310 85
2154 310 94
2155 310 97
2156 311 121
2157 311 148
2158 314 101
2159 314 103
2160 314 106
2161 314 112
2162 314 124
2163 314 138
2164 314 140
2165 314 145
2166 314 147
2167 314 151
2168 314 25
2169 314 32
2170 314 39
2171 314 44
2172 314 49
2173 314 53
2174 314 6
2175 314 8
2176 314 98
2177 316 108
2178 316 109
2179 316 11
2180 316 134
2181 316 135
2182 316 22
2183 316 29
2184 316 65
2185 316 71
2186 316 74
2187 316 81
2188 316 83
2189 316 91
2190 317 149
2191 317 150
2192 317 160
2193 317 18
2194 317 69
2195 317 75
2196 324 101
2197 324 104
2198 324 11
2199 324 111
2200 324 114
2201 324 121
2202 324 131
2203 324 137
2204 324 141
2205 324 147
2206 324 151
2207 324 161
2208 324 21
2209 324 31
2210 324 41
2211 324 51
2212 324 61
2213 324 71
2214 324 81
2215 324 84
2216 324 91
2217 324 94
EOF
